p edge 460 2300
e 1 21
e 1 122
e 1 184
e 1 208
e 1 318
e 2 216
e 2 243
e 2 419
e 2 432
e 2 460
e 3 113
e 3 160
e 3 177
e 3 355
e 3 456
e 4 108
e 4 230
e 4 257
e 4 345
e 4 370
e 5 4
e 5 85
e 5 210
e 5 419
e 5 426
e 6 218
e 6 241
e 6 339
e 6 349
e 6 416
e 7 110
e 7 127
e 7 370
e 7 412
e 7 428
e 8 29
e 8 176
e 8 213
e 8 219
e 8 344
e 9 91
e 9 316
e 9 323
e 9 365
e 9 430
e 10 62
e 10 101
e 10 127
e 10 210
e 10 444
e 11 1
e 11 48
e 11 123
e 11 322
e 11 353
e 12 24
e 12 42
e 12 149
e 12 338
e 12 422
e 13 77
e 13 153
e 13 251
e 13 426
e 13 450
e 14 8
e 14 91
e 14 311
e 14 338
e 14 415
e 15 58
e 15 209
e 15 312
e 15 325
e 15 447
e 16 7
e 16 103
e 16 113
e 16 359
e 16 366
e 17 60
e 17 107
e 17 107
e 17 121
e 17 315
e 18 26
e 18 233
e 18 310
e 18 317
e 18 339
e 19 11
e 19 27
e 19 51
e 19 188
e 19 395
e 20 52
e 20 73
e 20 172
e 20 281
e 20 434
e 21 113
e 21 248
e 21 378
e 21 387
e 21 426
e 22 331
e 22 335
e 22 336
e 22 373
e 22 425
e 23 60
e 23 211
e 23 393
e 23 430
e 23 443
e 24 90
e 24 287
e 24 342
e 24 436
e 24 455
e 25 89
e 25 101
e 25 214
e 25 290
e 25 328
e 26 71
e 26 119
e 26 145
e 26 207
e 26 421
e 27 41
e 27 217
e 27 258
e 27 327
e 27 401
e 28 38
e 28 46
e 28 210
e 28 260
e 28 272
e 29 159
e 29 186
e 29 389
e 29 418
e 29 424
e 30 34
e 30 98
e 30 99
e 30 294
e 30 299
e 31 44
e 31 68
e 31 290
e 31 336
e 31 379
e 32 38
e 32 175
e 32 270
e 32 308
e 32 392
e 33 61
e 33 179
e 33 260
e 33 359
e 33 390
e 34 6
e 34 354
e 34 386
e 34 429
e 34 455
e 35 16
e 35 239
e 35 294
e 35 322
e 35 358
e 36 31
e 36 38
e 36 120
e 36 340
e 36 415
e 37 83
e 37 97
e 37 170
e 37 224
e 37 335
e 38 48
e 38 283
e 38 314
e 38 432
e 38 454
e 39 171
e 39 208
e 39 223
e 39 333
e 39 392
e 40 18
e 40 78
e 40 110
e 40 202
e 40 396
e 41 77
e 41 195
e 41 232
e 41 332
e 41 388
e 42 22
e 42 332
e 42 358
e 42 361
e 42 382
e 43 139
e 43 191
e 43 375
e 43 396
e 43 406
e 44 43
e 44 177
e 44 197
e 44 202
e 44 374
e 45 65
e 45 72
e 45 280
e 45 347
e 45 377
e 46 19
e 46 21
e 46 222
e 46 259
e 46 459
e 47 23
e 47 153
e 47 191
e 47 209
e 47 340
e 48 26
e 48 285
e 48 417
e 48 418
e 48 460
e 49 257
e 49 260
e 49 288
e 49 344
e 49 355
e 50 99
e 50 160
e 50 185
e 50 312
e 50 398
e 51 48
e 51 257
e 51 319
e 51 381
e 51 431
e 52 31
e 52 126
e 52 279
e 52 350
e 52 424
e 53 12
e 53 75
e 53 86
e 53 352
e 53 405
e 54 32
e 54 236
e 54 278
e 54 296
e 54 355
e 55 19
e 55 49
e 55 234
e 55 390
e 55 449
e 56 146
e 56 303
e 56 323
e 56 403
e 56 407
e 57 131
e 57 222
e 57 275
e 57 334
e 57 338
e 58 34
e 58 34
e 58 127
e 58 283
e 58 447
e 59 4
e 59 55
e 59 197
e 59 414
e 59 415
e 60 180
e 60 256
e 60 263
e 60 303
e 60 378
e 61 60
e 61 93
e 61 152
e 61 331
e 61 389
e 62 44
e 62 295
e 62 298
e 62 356
e 62 447
e 63 104
e 63 330
e 63 352
e 63 374
e 63 418
e 64 46
e 64 92
e 64 128
e 64 214
e 64 349
e 65 38
e 65 137
e 65 151
e 65 184
e 65 379
e 66 84
e 66 136
e 66 171
e 66 219
e 66 296
e 67 125
e 67 172
e 67 202
e 67 305
e 67 351
e 68 130
e 68 146
e 68 174
e 68 200
e 68 234
e 69 132
e 69 171
e 69 205
e 69 326
e 69 430
e 70 66
e 70 363
e 70 387
e 70 429
e 70 444
e 71 30
e 71 144
e 71 221
e 71 336
e 71 440
e 72 18
e 72 207
e 72 328
e 72 444
e 72 459
e 73 22
e 73 257
e 73 286
e 73 304
e 73 341
e 74 106
e 74 231
e 74 317
e 74 339
e 74 456
e 75 97
e 75 213
e 75 252
e 75 271
e 75 403
e 76 220
e 76 264
e 76 331
e 76 342
e 76 425
e 77 13
e 77 91
e 77 135
e 77 328
e 77 441
e 78 39
e 78 237
e 78 333
e 78 444
e 78 451
e 79 68
e 79 167
e 79 211
e 79 311
e 79 444
e 80 54
e 80 195
e 80 203
e 80 274
e 80 460
e 81 6
e 81 83
e 81 285
e 81 336
e 81 348
e 82 204
e 82 215
e 82 266
e 82 413
e 82 445
e 83 59
e 83 279
e 83 301
e 83 368
e 83 427
e 84 124
e 84 243
e 84 303
e 84 440
e 84 445
e 85 49
e 85 104
e 85 189
e 85 285
e 85 302
e 86 36
e 86 53
e 86 143
e 86 275
e 86 375
e 87 158
e 87 288
e 87 342
e 87 346
e 87 402
e 88 17
e 88 30
e 88 142
e 88 239
e 88 352
e 89 114
e 89 244
e 89 254
e 89 302
e 89 381
e 90 129
e 90 228
e 90 287
e 90 387
e 90 460
e 91 56
e 91 98
e 91 101
e 91 105
e 91 209
e 92 19
e 92 75
e 92 332
e 92 377
e 92 401
e 93 53
e 93 199
e 93 252
e 93 333
e 93 436
e 94 131
e 94 199
e 94 250
e 94 280
e 94 287
e 95 90
e 95 145
e 95 305
e 95 437
e 95 460
e 96 119
e 96 134
e 96 294
e 96 321
e 96 370
e 97 130
e 97 155
e 97 182
e 97 219
e 97 362
e 98 88
e 98 158
e 98 287
e 98 348
e 98 384
e 99 63
e 99 133
e 99 192
e 99 433
e 99 448
e 100 40
e 100 80
e 100 111
e 100 136
e 100 342
e 101 32
e 101 111
e 101 115
e 101 331
e 101 350
e 102 42
e 102 158
e 102 295
e 102 297
e 102 394
e 103 2
e 103 5
e 103 41
e 103 384
e 103 454
e 104 43
e 104 75
e 104 76
e 104 82
e 104 288
e 105 46
e 105 63
e 105 163
e 105 205
e 105 237
e 106 53
e 106 118
e 106 292
e 106 393
e 106 452
e 107 36
e 107 155
e 107 244
e 107 247
e 107 382
e 108 29
e 108 38
e 108 58
e 108 116
e 108 300
e 109 4
e 109 77
e 109 118
e 109 143
e 109 323
e 110 20
e 110 250
e 110 275
e 110 298
e 110 408
e 111 67
e 111 302
e 111 353
e 111 402
e 111 423
e 112 44
e 112 143
e 112 361
e 112 412
e 112 441
e 113 11
e 113 146
e 113 217
e 113 347
e 113 406
e 114 95
e 114 137
e 114 195
e 114 264
e 114 311
e 115 46
e 115 154
e 115 173
e 115 317
e 115 441
e 116 9
e 116 126
e 116 151
e 116 346
e 116 420
e 117 21
e 117 24
e 117 77
e 117 115
e 117 359
e 118 103
e 118 149
e 118 318
e 118 342
e 118 446
e 119 111
e 119 176
e 119 286
e 119 376
e 119 409
e 120 76
e 120 91
e 120 154
e 120 238
e 120 449
e 121 91
e 121 109
e 121 164
e 121 210
e 121 383
e 122 125
e 122 228
e 122 307
e 122 318
e 122 358
e 123 10
e 123 72
e 123 150
e 123 151
e 123 352
e 124 31
e 124 239
e 124 300
e 124 369
e 124 428
e 125 8
e 125 331
e 125 378
e 125 389
e 125 394
e 126 37
e 126 59
e 126 151
e 126 260
e 126 393
e 127 208
e 127 212
e 127 218
e 127 232
e 127 420
e 128 78
e 128 113
e 128 127
e 128 183
e 128 298
e 129 39
e 129 169
e 129 182
e 129 276
e 129 418
e 130 17
e 130 88
e 130 305
e 130 396
e 130 446
e 131 7
e 131 135
e 131 141
e 131 169
e 131 369
e 132 79
e 132 82
e 132 338
e 132 409
e 132 434
e 133 13
e 133 126
e 133 255
e 133 361
e 133 436
e 134 58
e 134 64
e 134 170
e 134 181
e 134 186
e 135 23
e 135 117
e 135 362
e 135 393
e 135 408
e 136 74
e 136 135
e 136 255
e 136 293
e 136 440
e 137 58
e 137 82
e 137 280
e 137 426
e 137 432
e 138 43
e 138 215
e 138 226
e 138 353
e 138 442
e 139 22
e 139 177
e 139 193
e 139 225
e 139 431
e 140 204
e 140 258
e 140 283
e 140 403
e 140 440
e 141 56
e 141 234
e 141 267
e 141 393
e 141 415
e 142 24
e 142 92
e 142 214
e 142 245
e 142 331
e 143 58
e 143 172
e 143 192
e 143 353
e 143 398
e 144 160
e 144 169
e 144 192
e 144 241
e 144 255
e 145 157
e 145 202
e 145 385
e 145 431
e 145 448
e 146 13
e 146 119
e 146 226
e 146 271
e 146 292
e 147 114
e 147 144
e 147 190
e 147 262
e 147 418
e 148 32
e 148 273
e 148 373
e 148 401
e 148 447
e 149 105
e 149 128
e 149 279
e 149 370
e 149 385
e 150 65
e 150 236
e 150 255
e 150 373
e 150 383
e 151 122
e 151 173
e 151 241
e 151 280
e 151 439
e 152 37
e 152 192
e 152 277
e 152 290
e 152 351
e 153 135
e 153 150
e 153 253
e 153 321
e 153 325
e 154 6
e 154 193
e 154 327
e 154 375
e 154 427
e 155 4
e 155 10
e 155 36
e 155 156
e 155 360
e 156 82
e 156 91
e 156 154
e 156 273
e 156 414
e 157 81
e 157 132
e 157 210
e 157 210
e 157 254
e 158 5
e 158 17
e 158 29
e 158 196
e 158 416
e 159 84
e 159 279
e 159 318
e 159 334
e 159 394
e 160 96
e 160 133
e 160 234
e 160 370
e 160 416
e 161 41
e 161 138
e 161 377
e 161 409
e 161 414
e 162 7
e 162 99
e 162 175
e 162 412
e 162 424
e 163 38
e 163 266
e 163 421
e 163 436
e 163 442
e 164 42
e 164 91
e 164 204
e 164 249
e 164 251
e 165 176
e 165 267
e 165 301
e 165 305
e 165 335
e 166 60
e 166 180
e 166 203
e 166 205
e 166 260
e 167 10
e 167 119
e 167 210
e 167 262
e 167 325
e 168 24
e 168 237
e 168 360
e 168 412
e 168 453
e 169 64
e 169 117
e 169 154
e 169 404
e 169 445
e 170 29
e 170 202
e 170 347
e 170 372
e 170 396
e 171 28
e 171 70
e 171 153
e 171 211
e 171 353
e 172 83
e 172 229
e 172 230
e 172 243
e 172 452
e 173 59
e 173 168
e 173 235
e 173 251
e 173 437
e 174 42
e 174 44
e 174 168
e 174 253
e 174 318
e 175 43
e 175 178
e 175 266
e 175 314
e 175 408
e 176 198
e 176 239
e 176 297
e 176 303
e 176 414
e 177 27
e 177 135
e 177 240
e 177 262
e 177 414
e 178 21
e 178 46
e 178 49
e 178 231
e 178 374
e 179 66
e 179 71
e 179 250
e 179 342
e 179 440
e 180 63
e 180 109
e 180 205
e 180 241
e 180 299
e 181 80
e 181 121
e 181 123
e 181 182
e 181 439
e 182 21
e 182 47
e 182 111
e 182 351
e 182 424
e 183 176
e 183 221
e 183 229
e 183 284
e 183 330
e 184 123
e 184 194
e 184 198
e 184 352
e 184 419
e 185 26
e 185 151
e 185 171
e 185 221
e 185 307
e 186 72
e 186 120
e 186 134
e 186 219
e 186 331
e 187 8
e 187 112
e 187 142
e 187 248
e 187 310
e 188 44
e 188 98
e 188 316
e 188 381
e 188 460
e 189 165
e 189 169
e 189 255
e 189 258
e 189 407
e 190 191
e 190 194
e 190 291
e 190 370
e 190 433
e 191 8
e 191 14
e 191 121
e 191 271
e 191 284
e 192 64
e 192 100
e 192 175
e 192 290
e 192 340
e 193 332
e 193 362
e 193 365
e 193 403
e 193 460
e 194 30
e 194 216
e 194 351
e 194 367
e 194 382
e 195 13
e 195 82
e 195 216
e 195 327
e 195 392
e 196 23
e 196 214
e 196 228
e 196 315
e 196 434
e 197 8
e 197 85
e 197 174
e 197 344
e 197 440
e 198 25
e 198 75
e 198 83
e 198 233
e 198 305
e 199 99
e 199 124
e 199 164
e 199 220
e 199 260
e 200 74
e 200 306
e 200 330
e 200 434
e 200 453
e 201 15
e 201 125
e 201 234
e 201 332
e 201 380
e 202 28
e 202 136
e 202 140
e 202 176
e 202 325
e 203 91
e 203 134
e 203 390
e 203 400
e 203 448
e 204 143
e 204 143
e 204 150
e 204 318
e 204 367
e 205 26
e 205 31
e 205 116
e 205 245
e 205 261
e 206 87
e 206 124
e 206 232
e 206 238
e 206 270
e 207 37
e 207 143
e 207 222
e 207 340
e 207 433
e 208 46
e 208 120
e 208 222
e 208 224
e 208 426
e 209 39
e 209 129
e 209 315
e 209 368
e 209 401
e 210 83
e 210 295
e 210 306
e 210 428
e 210 440
e 211 12
e 211 154
e 211 190
e 211 329
e 211 427
e 212 11
e 212 47
e 212 77
e 212 109
e 212 435
e 213 7
e 213 38
e 213 267
e 213 368
e 213 453
e 214 145
e 214 161
e 214 181
e 214 227
e 214 262
e 215 4
e 215 55
e 215 301
e 215 367
e 215 455
e 216 78
e 216 114
e 216 186
e 216 225
e 216 278
e 217 18
e 217 93
e 217 130
e 217 132
e 217 153
e 218 30
e 218 109
e 218 117
e 218 346
e 218 399
e 219 76
e 219 183
e 219 223
e 219 306
e 219 352
e 220 100
e 220 122
e 220 290
e 220 316
e 220 357
e 221 93
e 221 132
e 221 197
e 221 292
e 221 341
e 222 26
e 222 124
e 222 193
e 222 392
e 222 409
e 223 66
e 223 67
e 223 188
e 223 259
e 223 310
e 224 24
e 224 125
e 224 291
e 224 337
e 224 433
e 225 94
e 225 354
e 225 379
e 225 387
e 225 440
e 226 9
e 226 11
e 226 35
e 226 316
e 226 338
e 227 98
e 227 242
e 227 323
e 227 340
e 227 429
e 228 20
e 228 140
e 228 284
e 228 351
e 228 439
e 229 32
e 229 45
e 229 203
e 229 314
e 229 438
e 230 28
e 230 84
e 230 225
e 230 287
e 230 292
e 231 4
e 231 56
e 231 86
e 231 321
e 231 359
e 232 80
e 232 87
e 232 313
e 232 315
e 232 422
e 233 66
e 233 239
e 233 273
e 233 292
e 233 457
e 234 104
e 234 187
e 234 200
e 234 206
e 234 313
e 235 24
e 235 112
e 235 192
e 235 284
e 235 302
e 236 43
e 236 160
e 236 177
e 236 306
e 236 327
e 237 75
e 237 137
e 237 196
e 237 405
e 237 431
e 238 54
e 238 95
e 238 201
e 238 368
e 238 398
e 239 180
e 239 241
e 239 273
e 239 391
e 239 427
e 240 17
e 240 93
e 240 139
e 240 260
e 240 331
e 241 55
e 241 214
e 241 256
e 241 276
e 241 419
e 242 2
e 242 15
e 242 108
e 242 158
e 242 431
e 243 147
e 243 181
e 243 262
e 243 405
e 243 417
e 244 93
e 244 121
e 244 224
e 244 252
e 244 430
e 245 61
e 245 104
e 245 197
e 245 361
e 245 400
e 246 89
e 246 125
e 246 174
e 246 307
e 246 456
e 247 68
e 247 104
e 247 130
e 247 252
e 247 365
e 248 5
e 248 51
e 248 252
e 248 333
e 248 460
e 249 86
e 249 195
e 249 306
e 249 407
e 249 423
e 250 80
e 250 168
e 250 188
e 250 224
e 250 252
e 251 102
e 251 105
e 251 132
e 251 207
e 251 460
e 252 95
e 252 194
e 252 331
e 252 429
e 252 448
e 253 40
e 253 164
e 253 222
e 253 224
e 253 334
e 254 68
e 254 69
e 254 70
e 254 200
e 254 304
e 255 41
e 255 95
e 255 111
e 255 319
e 255 329
e 256 1
e 256 79
e 256 99
e 256 164
e 256 347
e 257 104
e 257 107
e 257 116
e 257 159
e 257 193
e 258 220
e 258 245
e 258 291
e 258 326
e 258 423
e 259 83
e 259 219
e 259 293
e 259 346
e 259 427
e 260 143
e 260 319
e 260 334
e 260 358
e 260 387
e 261 30
e 261 148
e 261 193
e 261 229
e 261 297
e 262 2
e 262 140
e 262 338
e 262 347
e 262 393
e 263 191
e 263 234
e 263 261
e 263 378
e 263 393
e 264 4
e 264 12
e 264 328
e 264 396
e 264 416
e 265 2
e 265 39
e 265 115
e 265 170
e 265 326
e 266 167
e 266 225
e 266 335
e 266 424
e 266 447
e 267 84
e 267 98
e 267 285
e 267 309
e 267 314
e 268 19
e 268 82
e 268 156
e 268 435
e 268 441
e 269 3
e 269 238
e 269 306
e 269 321
e 269 378
e 270 94
e 270 148
e 270 170
e 270 189
e 270 330
e 271 97
e 271 102
e 271 235
e 271 315
e 271 380
e 272 26
e 272 37
e 272 87
e 272 96
e 272 246
e 273 27
e 273 211
e 273 215
e 273 217
e 273 253
e 274 113
e 274 190
e 274 343
e 274 430
e 274 450
e 275 114
e 275 196
e 275 234
e 275 287
e 275 416
e 276 37
e 276 88
e 276 154
e 276 309
e 276 388
e 277 63
e 277 81
e 277 87
e 277 407
e 277 431
e 278 41
e 278 246
e 278 329
e 278 364
e 278 410
e 279 14
e 279 137
e 279 138
e 279 316
e 279 383
e 280 141
e 280 247
e 280 341
e 280 365
e 280 437
e 281 39
e 281 66
e 281 135
e 281 160
e 281 410
e 282 129
e 282 214
e 282 247
e 282 255
e 282 451
e 283 84
e 283 261
e 283 327
e 283 423
e 283 443
e 284 11
e 284 205
e 284 248
e 284 253
e 284 415
e 285 35
e 285 43
e 285 116
e 285 310
e 285 417
e 286 23
e 286 101
e 286 345
e 286 445
e 286 457
e 287 77
e 287 266
e 287 302
e 287 417
e 287 432
e 288 22
e 288 88
e 288 218
e 288 411
e 288 444
e 289 168
e 289 181
e 289 209
e 289 222
e 289 283
e 290 118
e 290 140
e 290 254
e 290 422
e 290 441
e 291 65
e 291 216
e 291 289
e 291 405
e 291 449
e 292 3
e 292 131
e 292 243
e 292 277
e 292 384
e 293 1
e 293 63
e 293 87
e 293 392
e 293 444
e 294 48
e 294 153
e 294 155
e 294 216
e 294 335
e 295 134
e 295 151
e 295 231
e 295 286
e 295 454
e 296 74
e 296 81
e 296 120
e 296 155
e 296 372
e 297 245
e 297 283
e 297 335
e 297 434
e 297 455
e 298 33
e 298 39
e 298 52
e 298 244
e 298 316
e 299 27
e 299 72
e 299 172
e 299 254
e 299 446
e 300 44
e 300 289
e 300 302
e 300 389
e 300 394
e 301 60
e 301 176
e 301 275
e 301 298
e 301 458
e 302 45
e 302 328
e 302 330
e 302 427
e 302 456
e 303 1
e 303 92
e 303 218
e 303 233
e 303 352
e 304 98
e 304 277
e 304 288
e 304 294
e 304 341
e 305 62
e 305 281
e 305 295
e 305 296
e 305 380
e 306 39
e 306 157
e 306 232
e 306 332
e 306 360
e 307 24
e 307 85
e 307 148
e 307 175
e 307 438
e 308 173
e 308 208
e 308 261
e 308 415
e 308 418
e 309 131
e 309 154
e 309 185
e 309 436
e 309 438
e 310 130
e 310 210
e 310 253
e 310 344
e 310 420
e 311 90
e 311 122
e 311 131
e 311 188
e 311 233
e 312 25
e 312 136
e 312 330
e 312 381
e 312 383
e 313 100
e 313 204
e 313 216
e 313 329
e 313 358
e 314 54
e 314 207
e 314 228
e 314 257
e 314 386
e 315 13
e 315 38
e 315 81
e 315 108
e 315 201
e 316 124
e 316 265
e 316 381
e 316 405
e 316 408
e 317 26
e 317 102
e 317 194
e 317 358
e 317 387
e 318 36
e 318 188
e 318 239
e 318 369
e 318 450
e 319 11
e 319 79
e 319 228
e 319 339
e 319 341
e 320 2
e 320 236
e 320 261
e 320 364
e 320 364
e 321 4
e 321 83
e 321 148
e 321 337
e 321 369
e 322 34
e 322 73
e 322 136
e 322 154
e 322 392
e 323 9
e 323 349
e 323 404
e 323 416
e 323 450
e 324 119
e 324 177
e 324 189
e 324 277
e 324 401
e 325 52
e 325 208
e 325 214
e 325 364
e 325 430
e 326 22
e 326 135
e 326 218
e 326 255
e 326 354
e 327 57
e 327 104
e 327 105
e 327 230
e 327 397
e 328 62
e 328 113
e 328 163
e 328 310
e 328 421
e 329 27
e 329 55
e 329 96
e 329 328
e 329 345
e 330 102
e 330 135
e 330 143
e 330 310
e 330 340
e 331 99
e 331 122
e 331 213
e 331 334
e 331 452
e 332 160
e 332 163
e 332 194
e 332 300
e 332 419
e 333 42
e 333 231
e 333 250
e 333 305
e 333 336
e 334 4
e 334 94
e 334 361
e 334 384
e 334 392
e 335 1
e 335 161
e 335 241
e 335 323
e 335 441
e 336 73
e 336 168
e 336 305
e 336 353
e 336 356
e 337 220
e 337 326
e 337 355
e 337 359
e 337 442
e 338 12
e 338 37
e 338 99
e 338 111
e 338 238
e 339 221
e 339 235
e 339 239
e 339 267
e 339 414
e 340 47
e 340 202
e 340 206
e 340 249
e 340 358
e 341 81
e 341 104
e 341 179
e 341 290
e 341 441
e 342 27
e 342 54
e 342 150
e 342 353
e 342 445
e 343 48
e 343 130
e 343 139
e 343 211
e 343 357
e 344 9
e 344 50
e 344 249
e 344 352
e 344 403
e 345 35
e 345 47
e 345 159
e 345 322
e 345 382
e 346 71
e 346 146
e 346 365
e 346 366
e 346 402
e 347 10
e 347 221
e 347 308
e 347 367
e 347 451
e 348 53
e 348 239
e 348 240
e 348 256
e 348 266
e 349 93
e 349 198
e 349 201
e 349 343
e 349 378
e 350 48
e 350 157
e 350 278
e 350 362
e 350 369
e 351 86
e 351 179
e 351 390
e 351 390
e 351 458
e 352 137
e 352 271
e 352 319
e 352 349
e 352 440
e 353 26
e 353 95
e 353 101
e 353 303
e 353 337
e 354 21
e 354 104
e 354 174
e 354 208
e 354 284
e 355 90
e 355 109
e 355 142
e 355 206
e 355 331
e 356 11
e 356 276
e 356 381
e 356 395
e 356 441
e 357 96
e 357 206
e 357 304
e 357 388
e 357 422
e 358 23
e 358 152
e 358 155
e 358 351
e 358 454
e 359 41
e 359 84
e 359 195
e 359 201
e 359 279
e 360 59
e 360 174
e 360 353
e 360 411
e 360 443
e 361 46
e 361 78
e 361 83
e 361 195
e 361 389
e 362 75
e 362 281
e 362 294
e 362 405
e 362 409
e 363 185
e 363 220
e 363 286
e 363 343
e 363 423
e 364 166
e 364 278
e 364 356
e 364 428
e 364 458
e 365 43
e 365 197
e 365 253
e 365 260
e 365 449
e 366 11
e 366 21
e 366 30
e 366 324
e 366 407
e 367 181
e 367 193
e 367 212
e 367 270
e 367 357
e 368 175
e 368 203
e 368 249
e 368 353
e 368 389
e 369 57
e 369 146
e 369 398
e 369 443
e 369 449
e 370 1
e 370 180
e 370 218
e 370 275
e 370 398
e 371 186
e 371 190
e 371 195
e 371 323
e 371 355
e 372 23
e 372 144
e 372 197
e 372 306
e 372 350
e 373 14
e 373 65
e 373 161
e 373 338
e 373 396
e 374 10
e 374 20
e 374 85
e 374 175
e 374 231
e 375 71
e 375 123
e 375 173
e 375 247
e 375 277
e 376 65
e 376 184
e 376 281
e 376 302
e 376 319
e 377 2
e 377 30
e 377 172
e 377 235
e 377 351
e 378 31
e 378 136
e 378 203
e 378 241
e 378 268
e 379 42
e 379 130
e 379 321
e 379 348
e 379 397
e 380 19
e 380 67
e 380 80
e 380 147
e 380 238
e 381 292
e 381 302
e 381 356
e 381 375
e 381 448
e 382 6
e 382 7
e 382 59
e 382 278
e 382 392
e 383 77
e 383 262
e 383 395
e 383 422
e 383 450
e 384 54
e 384 117
e 384 187
e 384 254
e 384 368
e 385 65
e 385 77
e 385 201
e 385 398
e 385 420
e 386 8
e 386 32
e 386 100
e 386 411
e 386 447
e 387 28
e 387 98
e 387 269
e 387 313
e 387 347
e 388 39
e 388 287
e 388 314
e 388 376
e 388 397
e 389 207
e 389 238
e 389 344
e 389 360
e 389 428
e 390 177
e 390 213
e 390 300
e 390 421
e 390 435
e 391 171
e 391 236
e 391 298
e 391 351
e 391 355
e 392 69
e 392 209
e 392 263
e 392 311
e 392 352
e 393 183
e 393 202
e 393 286
e 393 332
e 393 431
e 394 255
e 394 320
e 394 322
e 394 368
e 394 417
e 395 24
e 395 116
e 395 130
e 395 169
e 395 416
e 396 52
e 396 72
e 396 238
e 396 401
e 396 421
e 397 162
e 397 278
e 397 301
e 397 389
e 397 424
e 398 17
e 398 35
e 398 122
e 398 216
e 398 315
e 399 149
e 399 270
e 399 293
e 399 337
e 399 364
e 400 83
e 400 86
e 400 143
e 400 269
e 400 414
e 401 43
e 401 384
e 401 410
e 401 435
e 401 458
e 402 12
e 402 113
e 402 121
e 402 336
e 402 451
e 403 58
e 403 127
e 403 208
e 403 310
e 403 360
e 404 21
e 404 103
e 404 149
e 404 270
e 404 380
e 405 137
e 405 214
e 405 330
e 405 380
e 405 449
e 406 7
e 406 305
e 406 364
e 406 423
e 406 451
e 407 137
e 407 155
e 407 237
e 407 242
e 407 460
e 408 76
e 408 85
e 408 190
e 408 259
e 408 412
e 409 71
e 409 81
e 409 245
e 409 340
e 409 370
e 410 92
e 410 191
e 410 216
e 410 256
e 410 382
e 411 71
e 411 247
e 411 349
e 411 353
e 411 363
e 412 219
e 412 305
e 412 339
e 412 400
e 412 406
e 413 15
e 413 174
e 413 210
e 413 285
e 413 371
e 414 118
e 414 138
e 414 186
e 414 292
e 414 391
e 415 137
e 415 309
e 415 323
e 415 353
e 415 355
e 416 26
e 416 151
e 416 216
e 416 282
e 416 406
e 417 30
e 417 133
e 417 228
e 417 388
e 417 440
e 418 163
e 418 373
e 418 377
e 418 419
e 418 442
e 419 161
e 419 183
e 419 188
e 419 344
e 419 379
e 420 34
e 420 188
e 420 255
e 420 257
e 420 412
e 421 79
e 421 100
e 421 271
e 421 370
e 421 375
e 422 28
e 422 100
e 422 216
e 422 398
e 422 408
e 423 35
e 423 39
e 423 54
e 423 108
e 423 422
e 424 73
e 424 162
e 424 196
e 424 390
e 424 401
e 425 8
e 425 92
e 425 133
e 425 165
e 425 424
e 426 54
e 426 114
e 426 214
e 426 303
e 426 457
e 427 129
e 427 132
e 427 157
e 427 317
e 427 413
e 428 22
e 428 30
e 428 60
e 428 288
e 428 411
e 429 2
e 429 71
e 429 354
e 429 396
e 429 410
e 430 35
e 430 129
e 430 206
e 430 230
e 430 297
e 431 167
e 431 274
e 431 283
e 431 356
e 431 405
e 432 35
e 432 334
e 432 377
e 432 425
e 432 428
e 433 51
e 433 105
e 433 187
e 433 232
e 433 458
e 434 14
e 434 50
e 434 79
e 434 264
e 434 345
e 435 2
e 435 18
e 435 67
e 435 186
e 435 235
e 436 126
e 436 127
e 436 155
e 436 280
e 436 347
e 437 90
e 437 208
e 437 256
e 437 366
e 437 417
e 438 45
e 438 141
e 438 187
e 438 270
e 438 384
e 439 36
e 439 121
e 439 223
e 439 394
e 439 454
e 440 91
e 440 136
e 440 229
e 440 386
e 440 389
e 441 72
e 441 108
e 441 327
e 441 367
e 441 384
e 442 69
e 442 159
e 442 311
e 442 371
e 442 405
e 443 36
e 443 109
e 443 166
e 443 202
e 443 234
e 444 32
e 444 356
e 444 378
e 444 382
e 444 445
e 445 11
e 445 79
e 445 329
e 445 372
e 445 372
e 446 9
e 446 51
e 446 76
e 446 416
e 446 428
e 447 177
e 447 201
e 447 250
e 447 322
e 447 346
e 448 71
e 448 175
e 448 312
e 448 350
e 448 423
e 449 23
e 449 282
e 449 365
e 449 405
e 449 421
e 450 13
e 450 216
e 450 324
e 450 328
e 450 432
e 451 57
e 451 214
e 451 241
e 451 337
e 451 383
e 452 40
e 452 119
e 452 212
e 452 357
e 452 437
e 453 38
e 453 178
e 453 269
e 453 411
e 453 447
e 454 97
e 454 236
e 454 245
e 454 317
e 454 455
e 455 154
e 455 171
e 455 346
e 455 348
e 455 446
e 456 41
e 456 80
e 456 131
e 456 176
e 456 192
e 457 8
e 457 77
e 457 120
e 457 145
e 457 359
e 458 111
e 458 150
e 458 155
e 458 265
e 458 424
e 459 9
e 459 347
e 459 391
e 459 447
e 459 455
e 460 26
e 460 109
e 460 113
e 460 129
e 460 419
